
  12    4
  10   10   10   10

   0   0   0   0   0   2 2 5 
  10  10  10  10  10   2 6 3 
   4  10  10  10  10   1 4 
  10  10  10  10  10   2 11 7 
   4  10  10  10  10   2 11 7 
   3  10  10  10  10   1 7 
   3  10  10  10  10   3 10 9 8 
   8  10  10  10  10   1 12
   2  10  10  10  10   1 12
   2  10  10  10  10   1 12
   7  10  10  10  10   1 12
   0   0   0   0   0   0 
